33D32945 STP File, STP Format Version 1.0

SECTION Comment
Name full_22
END

SECTION Graph
Nodes 22
Edges 231
E 19 1 2
E 18 1 5
E 16 4 12
E 16 3 9
E 16 2 3
E 15 14 2
E 19 14 15
E 18 14 1
E 17 14 11
E 16 14 10
E 17 1 12
E 16 1 12
E 15 1 6
E 14 1 8
E 13 1 6
E 21 19 7
E 12 1 11
E 20 19 7
E 11 1 8
E 10 1 15
E 22 19 1
E 22 20 1
E 21 20 10
E 20 1 12
E 6 5 18
E 7 5 7
E 8 5 16
E 16 9 2
E 9 5 3
E 16 8 1
E 16 7 18
E 16 6 1
E 16 5 4
E 22 14 19
E 21 14 8
E 22 1 4
E 20 14 1
E 21 1 11
E 15 5 5
E 15 4 17
E 15 3 10
E 19 13 15
E 15 2 1
E 22 13 5
E 20 13 12
E 21 13 3
E 5 4 2
E 6 4 14
E 7 4 10
E 8 4 17
E 9 4 12
E 15 9 7
E 15 8 15
E 15 7 7
E 15 6 20
E 14 6 8
E 14 5 14
E 14 4 20
E 14 3 13
E 14 2 12
E 21 2 3
E 20 2 1
E 19 18 4
E 22 2 2
E 4 3 9
E 5 3 13
E 6 3 5
E 7 3 3
E 8 3 7
E 14 13 13
E 9 3 20
E 17 13 5
E 14 9 1
E 18 13 20
E 14 8 18
E 15 13 18
E 14 7 15
E 16 13 19
E 20 18 19
E 21 18 11
E 22 18 13
E 13 7 18
E 13 6 15
E 13 5 9
E 13 4 16
E 13 3 7
E 13 2 16
E 13 12 10
E 16 12 5
E 17 12 11
E 14 12 6
E 15 12 11
E 22 17 7
E 20 17 13
E 21 17 13
E 18 12 10
E 3 2 15
E 19 12 7
E 4 2 17
E 5 2 2
E 6 2 7
E 7 2 9
E 8 2 12
E 9 2 13
E 21 12 12
E 22 12 17
E 13 9 2
E 13 8 13
E 20 12 3
E 12 8 19
E 18 11 4
E 12 7 17
E 17 11 12
E 12 6 18
E 12 5 9
E 19 11 4
E 12 4 6
E 12 3 19
E 12 2 15
E 21 11 5
E 20 11 12
E 22 11 9
E 2 1 12
E 3 1 7
E 4 1 8
E 5 1 17
E 6 1 8
E 7 1 1
E 8 1 3
E 9 1 14
E 19 17 9
E 12 9 15
E 18 17 6
E 11 9 18
E 11 8 5
E 11 7 12
E 11 6 8
E 11 5 8
E 11 4 13
E 11 3 2
E 11 2 17
E 17 16 1
E 19 16 3
E 18 16 10
E 22 9 17
E 22 8 9
E 22 7 6
E 22 6 14
E 22 5 7
E 22 4 1
E 22 3 13
E 19 9 7
E 19 8 6
E 19 7 11
E 12 11 14
E 19 6 5
E 19 5 3
E 14 11 11
E 19 4 19
E 13 11 15
E 19 3 8
E 16 11 12
E 19 2 10
E 9 8 6
E 15 11 6
E 20 16 8
E 22 16 13
E 21 16 10
E 10 2 5
E 18 2 19
E 10 9 10
E 10 8 18
E 10 7 9
E 10 6 9
E 22 21 7
E 10 5 6
E 10 4 19
E 10 3 19
E 11 10 13
E 13 10 19
E 12 10 4
E 15 10 15
E 14 10 12
E 22 15 9
E 21 15 13
E 20 15 16
E 17 10 4
E 21 9 5
E 16 10 19
E 21 8 19
E 19 10 8
E 21 7 18
E 18 10 8
E 21 6 14
E 21 5 20
E 21 4 13
E 21 3 20
E 20 10 20
E 18 9 18
E 18 8 13
E 22 10 14
E 18 7 18
E 21 10 16
E 18 6 18
E 18 5 17
E 8 7 8
E 18 4 18
E 9 7 13
E 18 3 17
E 17 3 10
E 17 2 8
E 20 3 4
E 20 9 3
E 20 8 4
E 20 7 20
E 20 6 2
E 20 5 4
E 20 4 13
E 16 15 3
E 17 9 2
E 7 6 4
E 17 8 20
E 8 6 18
E 17 7 9
E 9 6 6
E 17 6 17
E 19 15 19
E 17 5 13
E 18 15 18
E 17 4 11
E 17 15 9
END

SECTION Terminals
Terminals 10
T 1
T 2
T 4
T 5
T 6
T 10
T 11
T 19
T 21
T 22
END

EOF
